\ENCODING=ISO-8859-1
\Problem name: ilog.cplex

Minimize
 obj1: 102864 x1 + 104419 x2 + 90109 x3 + 95013 x4 + 90125 x5 + 98644 x6
       + 105484 x7 + 100859 x8 + 102554 x9 + 106220 x10 + 98801 x11
       + 102979 x12 + 99972 x13 + 92893 x14 + 99323 x15 + 100358 x16
       + 93041 x17 + 97950 x18 + 92339 x19 + 94781 x20 + 97068 x21 + 105724 x22
       + 107276 x23 + 97087 x24 + 97267 x25 + 104122 x26 + 96094 x27
       + 92183 x28 + 94140 x29 + 103307 x30 + 107724 x31 + 98466 x32
       + 103260 x33 + 90352 x34 + 95295 x35 + 97779 x36 + 105053 x37
       + 98964 x38 + 109462 x39 + 103163 x40 + 97026 x41 + 97334 x42
       + 93353 x43 + 93378 x44 + 93439 x45 + 101692 x46 + 102495 x47
       + 95540 x48 + 105541 x49 + 108322 x50 + 102622 x51 + 108665 x52
       + 106945 x53 + 106791 x54 + 90188 x55 + 103259 x56 + 102304 x57
       + 102913 x58 + 101961 x59 + 102838 x60 + 107686 x61 + 108817 x62
       + 93161 x63 + 101063 x64 + 99211 x65 + 90838 x66 + 104024 x67
       + 100339 x68 + 98502 x69 + 104724 x70 + 99288 x71 + 99679 x72
       + 99684 x73 + 92908 x74 + 92914 x75 + 91337 x76 + 95366 x77 + 95595 x78
       + 94729 x79 + 93188 x80 + 92355 x81 + 105228 x82 + 106441 x83
       + 107892 x84 + 106450 x85 + 98271 x86 + 105944 x87 + 109611 x88
       + 94911 x89 + 98292 x90 + 90846 x91 + 94364 x92 + 105075 x93 + 99951 x94
       + 104854 x95 + 91064 x96 + 108035 x97 + 94785 x98 + 103925 x99
       + 96877 x100 + 92715 x101 + 105452 x102 + 106510 x103 + 99109 x104
       + 92563 x105 + 109226 x106 + 96853 x107 + 100192 x108 + 103730 x109
       + 96413 x110 + 104883 x111 + 108098 x112 + 104264 x113 + 99090 x114
       + 99158 x115 + 96469 x116 + 98414 x117 + 101935 x118 + 104465 x119
       + 104622 x120 + 91413 x121 + 94236 x122 + 92808 x123 + 104546 x124
       + 90758 x125 + 91131 x126 + 103975 x127 + 96893 x128 + 92794 x129
       + 105533 x130 + 101105 x131 + 100728 x132 + 90580 x133 + 108959 x134
       + 94227 x135 + 101347 x136 + 101870 x137 + 106818 x138 + 107846 x139
       + 100630 x140 + 104478 x141 + 91715 x142 + 107472 x143 + 95243 x144
       + 100407 x145 + 106948 x146 + 94332 x147 + 109359 x148 + 109793 x149
       + 91597 x150 + 108468 x151 + 98819 x152 + 101294 x153 + 94776 x154
       + 96677 x155 + 105441 x156 + 97736 x157 + 94751 x158 + 101710 x159
       + 105369 x160 + 99549 x161 + 103182 x162 + 97599 x163 + 109321 x164
       + 108927 x165 + 103176 x166 + 108169 x167 + 94042 x168 + 90194 x169
       + 106473 x170 + 97330 x171 + 104135 x172 + 103208 x173 + 102764 x174
       + 91975 x175 + 109397 x176 + 91302 x177 + 91845 x178 + 105309 x179
       + 99591 x180 + 91440 x181 + 90164 x182 + 103283 x183 + 109249 x184
       + 101924 x185 + 99283 x186 + 102295 x187 + 91349 x188 + 91302 x189
       + 105342 x190 + 102430 x191 + 100624 x192 + 101041 x193 + 105839 x194
       + 107274 x195 + 104758 x196 + 104084 x197 + 92861 x198 + 98657 x199
       + 94890 x200 + 95606 x201 + 90970 x202 + 107076 x203 + 102252 x204
       + 98989 x205 + 109665 x206 + 96760 x207 + 99564 x208 + 107333 x209
       + 91377 x210 + 91932 x211 + 93927 x212 + 104746 x213 + 103867 x214
       + 99343 x215 + 108193 x216 + 109169 x217 + 90937 x218 + 91078 x219
       + 100258 x220 + 103195 x221 + 95062 x222 + 97888 x223 + 106791 x224
       + 104636 x225 + 91695 x226 + 109000 x227 + 109025 x228 + 95877 x229
       + 91440 x230 + 96183 x231 + 103374 x232 + 104884 x233 + 102108 x234
       + 108873 x235 + 103269 x236 + 100071 x237 + 99071 x238 + 101925 x239
       + 92833 x240 + 106300 x241 + 109410 x242 + 97833 x243 + 97896 x244
       + 109896 x245 + 92990 x246 + 91279 x247 + 95311 x248 + 96850 x249
       + 90329 x250 + 18381 x251 + 21666 x252 + 20396 x253 + 18444 x254
       + 20431 x255 + 20788 x256 + 18965 x257 + 20079 x258 + 19074 x259
       + 19873 x260 + 20067 x261 + 19711 x262 + 21607 x263 + 19792 x264
       + 20180 x265 + 18960 x266 + 20430 x267 + 20196 x268 + 18987 x269
       + 18087 x270 + 18899 x271 + 20648 x272 + 21901 x273 + 18909 x274
       + 19882 x275 + 19342 x276 + 20543 x277 + 18443 x278 + 21257 x279
       + 21347 x280 + 19342 x281 + 21617 x282 + 19584 x283 + 21524 x284
       + 20147 x285 + 19808 x286 + 18544 x287 + 19781 x288 + 20713 x289
       + 21679 x290 + 20439 x291 + 18321 x292 + 19396 x293 + 19961 x294
       + 19144 x295 + 21828 x296 + 19120 x297 + 20275 x298 + 19404 x299
       + 22088 x300
Subject To
 c1:   x4 - x7 - x8 + x11 - x22 - x29 - x31 + x34 - x40 + x44 + x47  = 0
 c2:   x54 - x57 - x58 + x61 - x72 - x79 - x81 + x84 - x90 + x94 + x97  = 0
 c3:   x104 - x107 - x108 + x111 - x122 - x129 - x131 + x134 - x140 + x144
       + x147  = 0
 c4:   x154 - x157 - x158 + x161 - x172 - x179 - x181 + x184 - x190 + x194
       + x197  = 1
 c5:   x204 - x207 - x208 + x211 - x222 - x229 - x231 + x234 - x240 + x244
       + x247  = 0
 c6:   x5 + x9 + x10 - x21 - x23 - x28 - x30 + x35 - x44 + x46 - x50  = 0
 c7:   x55 + x59 + x60 - x71 - x73 - x78 - x80 + x85 - x94 + x96 - x100  = 0
 c8:   x105 + x109 + x110 - x121 - x123 - x128 - x130 + x135 - x144 + x146
       - x150  = -1
 c9:   x155 + x159 + x160 - x171 - x173 - x178 - x180 + x185 - x194 + x196
       - x200  = 0
 c10:  x205 + x209 + x210 - x221 - x223 - x228 - x230 + x235 - x244 + x246
       - x250  = 0
 c11:  x7 - x18 + x19 + x21 + x36 - x37 - x47 + x48 + x49  = -1
 c12:  x57 - x68 + x69 + x71 + x86 - x87 - x97 + x98 + x99  = 0
 c13:  x107 - x118 + x119 + x121 + x136 - x137 - x147 + x148 + x149  = 0
 c14:  x157 - x168 + x169 + x171 + x186 - x187 - x197 + x198 + x199  = 0
 c15:  x207 - x218 + x219 + x221 + x236 - x237 - x247 + x248 + x249  = 0
 c16:  x6 - x15 - x19 + x20 + x27 + x31 - x41 + x42 - x46 + x50  = 0
 c17:  x56 - x65 - x69 + x70 + x77 + x81 - x91 + x92 - x96 + x100  = 0
 c18:  x106 - x115 - x119 + x120 + x127 + x131 - x141 + x142 - x146 + x150  = 0
 c19:  x156 - x165 - x169 + x170 + x177 + x181 - x191 + x192 - x196 + x200  = 0
 c20:  x206 - x215 - x219 + x220 + x227 + x231 - x241 + x242 - x246 + x250  = 0
 c21:  x12 - x14 - x24 - x35 - x38 + x39 + x40 - x42  = 0
 c22:  x62 - x64 - x74 - x85 - x88 + x89 + x90 - x92  = -1
 c23:  x112 - x114 - x124 - x135 - x138 + x139 + x140 - x142  = 0
 c24:  x162 - x164 - x174 - x185 - x188 + x189 + x190 - x192  = 0
 c25:  x212 - x214 - x224 - x235 - x238 + x239 + x240 - x242  = 0
 c26:  - x1 - x3 - x4 + x8 - x9 - x12 + x17 + x18 + x41 + x43  = 1
 c27:  - x51 - x53 - x54 + x58 - x59 - x62 + x67 + x68 + x91 + x93  = 1
 c28:  - x101 - x103 - x104 + x108 - x109 - x112 + x117 + x118 + x141 + x143
        = 0
 c29:  - x151 - x153 - x154 + x158 - x159 - x162 + x167 + x168 + x191 + x193
        = -1
 c30:  - x201 - x203 - x204 + x208 - x209 - x212 + x217 + x218 + x241 + x243
        = 1
 c31:  - x2 + x16 + x23 + x24 - x25 + x29 + x33 - x34 - x36  = 0
 c32:  - x52 + x66 + x73 + x74 - x75 + x79 + x83 - x84 - x86  = 0
 c33:  - x102 + x116 + x123 + x124 - x125 + x129 + x133 - x134 - x136  = 0
 c34:  - x152 + x166 + x173 + x174 - x175 + x179 + x183 - x184 - x186  = 0
 c35:  - x202 + x216 + x223 + x224 - x225 + x229 + x233 - x234 - x236  = -1
 c36:  - x5 + x13 + x25 - x26 - x27 - x32 - x43  = 0
 c37:  - x55 + x63 + x75 - x76 - x77 - x82 - x93  = 0
 c38:  - x105 + x113 + x125 - x126 - x127 - x132 - x143  = 0
 c39:  - x155 + x163 + x175 - x176 - x177 - x182 - x193  = 0
 c40:  - x205 + x213 + x225 - x226 - x227 - x232 - x243  = 0
 c41:  x1 - x11 - x16 - x17 - x20 + x26 + x28 + x38 - x45 - x49  = 0
 c42:  x51 - x61 - x66 - x67 - x70 + x76 + x78 + x88 - x95 - x99  = 0
 c43:  x101 - x111 - x116 - x117 - x120 + x126 + x128 + x138 - x145 - x149  = 1
 c44:  x151 - x161 - x166 - x167 - x170 + x176 + x178 + x188 - x195 - x199  = 0
 c45:  x201 - x211 - x216 - x217 - x220 + x226 + x228 + x238 - x245 - x249  = 0
 c46:  x2 + x3 - x6 - x10 - x13 + x14 + x15 + x22 + x30 + x32 - x33 + x37 - x39
       + x45 - x48  = 0
 c47:  x52 + x53 - x56 - x60 - x63 + x64 + x65 + x72 + x80 + x82 - x83 + x87
       - x89 + x95 - x98  = 0
 c48:  x102 + x103 - x106 - x110 - x113 + x114 + x115 + x122 + x130 + x132
       - x133 + x137 - x139 + x145 - x148  = 0
 c49:  x152 + x153 - x156 - x160 - x163 + x164 + x165 + x172 + x180 + x182
       - x183 + x187 - x189 + x195 - x198  = 0
 c50:  x202 + x203 - x206 - x210 - x213 + x214 + x215 + x222 + x230 + x232
       - x233 + x237 - x239 + x245 - x248  = 0
 c51:  4 x1 + 4 x51 + 4 x101 + 4 x151 + 4 x201 - 10 x251 <= 0
 c52:  4 x2 + 4 x52 + 4 x102 + 4 x152 + 4 x202 - 9 x252 <= 0
 c53:  4 x3 + 4 x53 + 4 x103 + 4 x153 + 4 x203 - 10 x253 <= 0
 c54:  4 x4 + 4 x54 + 4 x104 + 4 x154 + 4 x204 - 10 x254 <= 0
 c55:  4 x5 + 4 x55 + 4 x105 + 4 x155 + 4 x205 - 9 x255 <= 0
 c56:  4 x6 + 4 x56 + 4 x106 + 4 x156 + 4 x206 - 10 x256 <= 0
 c57:  4 x7 + 4 x57 + 4 x107 + 4 x157 + 4 x207 - 11 x257 <= 0
 c58:  4 x8 + 4 x58 + 4 x108 + 4 x158 + 4 x208 - 10 x258 <= 0
 c59:  4 x9 + 4 x59 + 4 x109 + 4 x159 + 4 x209 - 10 x259 <= 0
 c60:  4 x10 + 4 x60 + 4 x110 + 4 x160 + 4 x210 - 10 x260 <= 0
 c61:  4 x11 + 4 x61 + 4 x111 + 4 x161 + 4 x211 - 11 x261 <= 0
 c62:  4 x12 + 4 x62 + 4 x112 + 4 x162 + 4 x212 - 11 x262 <= 0
 c63:  4 x13 + 4 x63 + 4 x113 + 4 x163 + 4 x213 - 10 x263 <= 0
 c64:  4 x14 + 4 x64 + 4 x114 + 4 x164 + 4 x214 - 9 x264 <= 0
 c65:  4 x15 + 4 x65 + 4 x115 + 4 x165 + 4 x215 - 10 x265 <= 0
 c66:  4 x16 + 4 x66 + 4 x116 + 4 x166 + 4 x216 - 9 x266 <= 0
 c67:  4 x17 + 4 x67 + 4 x117 + 4 x167 + 4 x217 - 11 x267 <= 0
 c68:  4 x18 + 4 x68 + 4 x118 + 4 x168 + 4 x218 - 11 x268 <= 0
 c69:  4 x19 + 4 x69 + 4 x119 + 4 x169 + 4 x219 - 9 x269 <= 0
 c70:  4 x20 + 4 x70 + 4 x120 + 4 x170 + 4 x220 - 11 x270 <= 0
 c71:  4 x21 + 4 x71 + 4 x121 + 4 x171 + 4 x221 - 10 x271 <= 0
 c72:  4 x22 + 4 x72 + 4 x122 + 4 x172 + 4 x222 - 9 x272 <= 0
 c73:  4 x23 + 4 x73 + 4 x123 + 4 x173 + 4 x223 - 11 x273 <= 0
 c74:  4 x24 + 4 x74 + 4 x124 + 4 x174 + 4 x224 - 9 x274 <= 0
 c75:  4 x25 + 4 x75 + 4 x125 + 4 x175 + 4 x225 - 11 x275 <= 0
 c76:  4 x26 + 4 x76 + 4 x126 + 4 x176 + 4 x226 - 10 x276 <= 0
 c77:  4 x27 + 4 x77 + 4 x127 + 4 x177 + 4 x227 - 10 x277 <= 0
 c78:  4 x28 + 4 x78 + 4 x128 + 4 x178 + 4 x228 - 11 x278 <= 0
 c79:  4 x29 + 4 x79 + 4 x129 + 4 x179 + 4 x229 - 9 x279 <= 0
 c80:  4 x30 + 4 x80 + 4 x130 + 4 x180 + 4 x230 - 10 x280 <= 0
 c81:  4 x31 + 4 x81 + 4 x131 + 4 x181 + 4 x231 - 11 x281 <= 0
 c82:  4 x32 + 4 x82 + 4 x132 + 4 x182 + 4 x232 - 11 x282 <= 0
 c83:  4 x33 + 4 x83 + 4 x133 + 4 x183 + 4 x233 - 10 x283 <= 0
 c84:  4 x34 + 4 x84 + 4 x134 + 4 x184 + 4 x234 - 10 x284 <= 0
 c85:  4 x35 + 4 x85 + 4 x135 + 4 x185 + 4 x235 - 11 x285 <= 0
 c86:  4 x36 + 4 x86 + 4 x136 + 4 x186 + 4 x236 - 10 x286 <= 0
 c87:  4 x37 + 4 x87 + 4 x137 + 4 x187 + 4 x237 - 10 x287 <= 0
 c88:  4 x38 + 4 x88 + 4 x138 + 4 x188 + 4 x238 - 11 x288 <= 0
 c89:  4 x39 + 4 x89 + 4 x139 + 4 x189 + 4 x239 - 10 x289 <= 0
 c90:  4 x40 + 4 x90 + 4 x140 + 4 x190 + 4 x240 - 9 x290 <= 0
 c91:  4 x41 + 4 x91 + 4 x141 + 4 x191 + 4 x241 - 10 x291 <= 0
 c92:  4 x42 + 4 x92 + 4 x142 + 4 x192 + 4 x242 - 9 x292 <= 0
 c93:  4 x43 + 4 x93 + 4 x143 + 4 x193 + 4 x243 - 10 x293 <= 0
 c94:  4 x44 + 4 x94 + 4 x144 + 4 x194 + 4 x244 - 11 x294 <= 0
 c95:  4 x45 + 4 x95 + 4 x145 + 4 x195 + 4 x245 - 9 x295 <= 0
 c96:  4 x46 + 4 x96 + 4 x146 + 4 x196 + 4 x246 - 10 x296 <= 0
 c97:  4 x47 + 4 x97 + 4 x147 + 4 x197 + 4 x247 - 9 x297 <= 0
 c98:  4 x48 + 4 x98 + 4 x148 + 4 x198 + 4 x248 - 9 x298 <= 0
 c99:  4 x49 + 4 x99 + 4 x149 + 4 x199 + 4 x249 - 9 x299 <= 0
 c100: 4 x50 + 4 x100 + 4 x150 + 4 x200 + 4 x250 - 10 x300 <= 0
Bounds
 0 <= x1 <= 1
 0 <= x2 <= 1
 0 <= x3 <= 1
 0 <= x4 <= 1
 0 <= x5 <= 1
 0 <= x6 <= 1
 0 <= x7 <= 1
 0 <= x8 <= 1
 0 <= x9 <= 1
 0 <= x10 <= 1
 0 <= x11 <= 1
 0 <= x12 <= 1
 0 <= x13 <= 1
 0 <= x14 <= 1
 0 <= x15 <= 1
 0 <= x16 <= 1
 0 <= x17 <= 1
 0 <= x18 <= 1
 0 <= x19 <= 1
 0 <= x20 <= 1
 0 <= x21 <= 1
 0 <= x22 <= 1
 0 <= x23 <= 1
 0 <= x24 <= 1
 0 <= x25 <= 1
 0 <= x26 <= 1
 0 <= x27 <= 1
 0 <= x28 <= 1
 0 <= x29 <= 1
 0 <= x30 <= 1
 0 <= x31 <= 1
 0 <= x32 <= 1
 0 <= x33 <= 1
 0 <= x34 <= 1
 0 <= x35 <= 1
 0 <= x36 <= 1
 0 <= x37 <= 1
 0 <= x38 <= 1
 0 <= x39 <= 1
 0 <= x40 <= 1
 0 <= x41 <= 1
 0 <= x42 <= 1
 0 <= x43 <= 1
 0 <= x44 <= 1
 0 <= x45 <= 1
 0 <= x46 <= 1
 0 <= x47 <= 1
 0 <= x48 <= 1
 0 <= x49 <= 1
 0 <= x50 <= 1
 0 <= x51 <= 1
 0 <= x52 <= 1
 0 <= x53 <= 1
 0 <= x54 <= 1
 0 <= x55 <= 1
 0 <= x56 <= 1
 0 <= x57 <= 1
 0 <= x58 <= 1
 0 <= x59 <= 1
 0 <= x60 <= 1
 0 <= x61 <= 1
 0 <= x62 <= 1
 0 <= x63 <= 1
 0 <= x64 <= 1
 0 <= x65 <= 1
 0 <= x66 <= 1
 0 <= x67 <= 1
 0 <= x68 <= 1
 0 <= x69 <= 1
 0 <= x70 <= 1
 0 <= x71 <= 1
 0 <= x72 <= 1
 0 <= x73 <= 1
 0 <= x74 <= 1
 0 <= x75 <= 1
 0 <= x76 <= 1
 0 <= x77 <= 1
 0 <= x78 <= 1
 0 <= x79 <= 1
 0 <= x80 <= 1
 0 <= x81 <= 1
 0 <= x82 <= 1
 0 <= x83 <= 1
 0 <= x84 <= 1
 0 <= x85 <= 1
 0 <= x86 <= 1
 0 <= x87 <= 1
 0 <= x88 <= 1
 0 <= x89 <= 1
 0 <= x90 <= 1
 0 <= x91 <= 1
 0 <= x92 <= 1
 0 <= x93 <= 1
 0 <= x94 <= 1
 0 <= x95 <= 1
 0 <= x96 <= 1
 0 <= x97 <= 1
 0 <= x98 <= 1
 0 <= x99 <= 1
 0 <= x100 <= 1
 0 <= x101 <= 1
 0 <= x102 <= 1
 0 <= x103 <= 1
 0 <= x104 <= 1
 0 <= x105 <= 1
 0 <= x106 <= 1
 0 <= x107 <= 1
 0 <= x108 <= 1
 0 <= x109 <= 1
 0 <= x110 <= 1
 0 <= x111 <= 1
 0 <= x112 <= 1
 0 <= x113 <= 1
 0 <= x114 <= 1
 0 <= x115 <= 1
 0 <= x116 <= 1
 0 <= x117 <= 1
 0 <= x118 <= 1
 0 <= x119 <= 1
 0 <= x120 <= 1
 0 <= x121 <= 1
 0 <= x122 <= 1
 0 <= x123 <= 1
 0 <= x124 <= 1
 0 <= x125 <= 1
 0 <= x126 <= 1
 0 <= x127 <= 1
 0 <= x128 <= 1
 0 <= x129 <= 1
 0 <= x130 <= 1
 0 <= x131 <= 1
 0 <= x132 <= 1
 0 <= x133 <= 1
 0 <= x134 <= 1
 0 <= x135 <= 1
 0 <= x136 <= 1
 0 <= x137 <= 1
 0 <= x138 <= 1
 0 <= x139 <= 1
 0 <= x140 <= 1
 0 <= x141 <= 1
 0 <= x142 <= 1
 0 <= x143 <= 1
 0 <= x144 <= 1
 0 <= x145 <= 1
 0 <= x146 <= 1
 0 <= x147 <= 1
 0 <= x148 <= 1
 0 <= x149 <= 1
 0 <= x150 <= 1
 0 <= x151 <= 1
 0 <= x152 <= 1
 0 <= x153 <= 1
 0 <= x154 <= 1
 0 <= x155 <= 1
 0 <= x156 <= 1
 0 <= x157 <= 1
 0 <= x158 <= 1
 0 <= x159 <= 1
 0 <= x160 <= 1
 0 <= x161 <= 1
 0 <= x162 <= 1
 0 <= x163 <= 1
 0 <= x164 <= 1
 0 <= x165 <= 1
 0 <= x166 <= 1
 0 <= x167 <= 1
 0 <= x168 <= 1
 0 <= x169 <= 1
 0 <= x170 <= 1
 0 <= x171 <= 1
 0 <= x172 <= 1
 0 <= x173 <= 1
 0 <= x174 <= 1
 0 <= x175 <= 1
 0 <= x176 <= 1
 0 <= x177 <= 1
 0 <= x178 <= 1
 0 <= x179 <= 1
 0 <= x180 <= 1
 0 <= x181 <= 1
 0 <= x182 <= 1
 0 <= x183 <= 1
 0 <= x184 <= 1
 0 <= x185 <= 1
 0 <= x186 <= 1
 0 <= x187 <= 1
 0 <= x188 <= 1
 0 <= x189 <= 1
 0 <= x190 <= 1
 0 <= x191 <= 1
 0 <= x192 <= 1
 0 <= x193 <= 1
 0 <= x194 <= 1
 0 <= x195 <= 1
 0 <= x196 <= 1
 0 <= x197 <= 1
 0 <= x198 <= 1
 0 <= x199 <= 1
 0 <= x200 <= 1
 0 <= x201 <= 1
 0 <= x202 <= 1
 0 <= x203 <= 1
 0 <= x204 <= 1
 0 <= x205 <= 1
 0 <= x206 <= 1
 0 <= x207 <= 1
 0 <= x208 <= 1
 0 <= x209 <= 1
 0 <= x210 <= 1
 0 <= x211 <= 1
 0 <= x212 <= 1
 0 <= x213 <= 1
 0 <= x214 <= 1
 0 <= x215 <= 1
 0 <= x216 <= 1
 0 <= x217 <= 1
 0 <= x218 <= 1
 0 <= x219 <= 1
 0 <= x220 <= 1
 0 <= x221 <= 1
 0 <= x222 <= 1
 0 <= x223 <= 1
 0 <= x224 <= 1
 0 <= x225 <= 1
 0 <= x226 <= 1
 0 <= x227 <= 1
 0 <= x228 <= 1
 0 <= x229 <= 1
 0 <= x230 <= 1
 0 <= x231 <= 1
 0 <= x232 <= 1
 0 <= x233 <= 1
 0 <= x234 <= 1
 0 <= x235 <= 1
 0 <= x236 <= 1
 0 <= x237 <= 1
 0 <= x238 <= 1
 0 <= x239 <= 1
 0 <= x240 <= 1
 0 <= x241 <= 1
 0 <= x242 <= 1
 0 <= x243 <= 1
 0 <= x244 <= 1
 0 <= x245 <= 1
 0 <= x246 <= 1
 0 <= x247 <= 1
 0 <= x248 <= 1
 0 <= x249 <= 1
 0 <= x250 <= 1
 0 <= x251 <= 1
 0 <= x252 <= 1
 0 <= x253 <= 1
 0 <= x254 <= 1
 0 <= x255 <= 1
 0 <= x256 <= 1
 0 <= x257 <= 1
 0 <= x258 <= 1
 0 <= x259 <= 1
 0 <= x260 <= 1
 0 <= x261 <= 1
 0 <= x262 <= 1
 0 <= x263 <= 1
 0 <= x264 <= 1
 0 <= x265 <= 1
 0 <= x266 <= 1
 0 <= x267 <= 1
 0 <= x268 <= 1
 0 <= x269 <= 1
 0 <= x270 <= 1
 0 <= x271 <= 1
 0 <= x272 <= 1
 0 <= x273 <= 1
 0 <= x274 <= 1
 0 <= x275 <= 1
 0 <= x276 <= 1
 0 <= x277 <= 1
 0 <= x278 <= 1
 0 <= x279 <= 1
 0 <= x280 <= 1
 0 <= x281 <= 1
 0 <= x282 <= 1
 0 <= x283 <= 1
 0 <= x284 <= 1
 0 <= x285 <= 1
 0 <= x286 <= 1
 0 <= x287 <= 1
 0 <= x288 <= 1
 0 <= x289 <= 1
 0 <= x290 <= 1
 0 <= x291 <= 1
 0 <= x292 <= 1
 0 <= x293 <= 1
 0 <= x294 <= 1
 0 <= x295 <= 1
 0 <= x296 <= 1
 0 <= x297 <= 1
 0 <= x298 <= 1
 0 <= x299 <= 1
 0 <= x300 <= 1
Binaries
 x251  x252  x253  x254  x255  x256  x257  x258  x259  x260  x261  x262  x263 
 x264  x265  x266  x267  x268  x269  x270  x271  x272  x273  x274  x275  x276 
 x277  x278  x279  x280  x281  x282  x283  x284  x285  x286  x287  x288  x289 
 x290  x291  x292  x293  x294  x295  x296  x297  x298  x299  x300 
End
